W=9;
H=3;

MAX_TIME=15;
MAX_TRACKS=7;
SEMAPHORE_SUPPLY=1;

TARGET=(2,9);

TRAINS=[(3,1,TOP),(2,8,LEFT)];
DECOYS=[];

INIT_POS=[
(2,1,STRAIGHT_TD),
(2,4,STRAIGHT_RL),
(2,8,STRAIGHT_RL),
(2,9,STRAIGHT_RL),
(3,1,STRAIGHT_TD),
];
TUNNEL_PAIRS=[
  (1, 6, DOWN, 3, 2, TOP),
  (1, 3, DOWN, 3, 7, TOP),
];

GATES=[
(2,1,1,false),
];
ACTIVATIONS=[
(2,4,1),
];

DSWITCHES=[];
STATIONS=[];
